182 136 82 95 41 130 151 139 137 166 144 60 150 63 61 108 162 158 169 93 177 18 8 193 189 91 120 122 75 165 23 46 159 110 88 197 32 187 25 102 79 37 106 143 123 2 104 92 48 56 7 98 125 199 129 146 66 135 119 87 47 77 173 35 69 181 78 183 58 105 180 157 84 186 167 149 134 185 118 34 51 156 33 152 11 188 172 100 19 145 45 101 141 71 132 111 154 138 174 38 6 90 3 26 112 21 155 115 128 107 50 121 86 0 62 39 53 42 17 57 126 24 103 28 12 15 160 4 65 99 97 176 36 124 76 148 30 14 20 168 147 55 198 163 116 117 29 54 72 194 171 131 43 70 142 73 133 16 9 178 140 1 96 195 49 190 83 89 31 127 175 27 80 13 196 5 179 170 10 74 94 109 52 184 67 164 113 114 40 59 153 161 68 44 192 64 22 85 191 81 

